14 965
525 7 479 7 358 7 113 12
520 7 441 7 296 7 180 12
520 7 441 7 296 7 180 12
520 7 441 7 296 7 180 12
525 7 477 7 387 7 238 9 98 15
525 7 484 7 368 7 123 9 857 11 635 18
528 7 482 7 360 7 199 12
528 7 482 7 360 7 199 12
536 7 513 7 437 11
525 7 479 7 355 7 106 9 927 13
525 7 477 7 391 7 245 9 91 11 4 15 810 21 607 30
525 7 477 7 387 7 240 9 99 15
525 7 476 7 354 7 155 9 5 11 838 15 650 20 567 28
535 8 492 8 398 9 279 10 184 14 58 26 897 50
